results/x-long/X-n162-k11.vrp_seed-45.out
14153	1039
