results/x-long/X-n162-k11.vrp_seed-45.vrp.sol
Route #1: 152 23 24 13 71 37 6 49 73 38 11 48 26 28
Route #2: 127 17 149 89 14 1 55 60 21 9 27 117 97 77 161
Route #3: 72 119 144 143 84 122 107 133 138 126 139 105 10 29 15
Route #4: 121 85 160 153 110 128 124 134 148 109 2 82 159 147 135 141
Route #5: 52 79 20 67 62 114 95 129 96 88 106 100 31 140 154 111
Route #6: 59 50 45 150 90 86 53 80
Route #7: 156 115 103 118 30 40 157 112 87 4 101 132 93 125 92 155
Route #8: 54 76 41 61 46 69 65 70 113 63 104 83 98 47 25
Route #9: 74 108 137 39 146 151 131 57 32 16 5 120 158 81 91 136
Route #10: 116 102 142 43 123 56 66 94 36 35 99 130 58 68 145
Route #11: 8 42 51 12 64 18 19 3 33 75 44 7 34 22 78
Cost 14153.000000